!B3LYP DEF2-SVP OPT D4
* xyzfile 0 1 reactants.xyz 