!HF DEF2-SVP OPT
* xyzfile 0 1 bromoethane.xyz 