!HF DEF2-SVP
* xyzfile 0 1 C3_propargyl_indole.xyz
